==> MAXTIME              = 3600
==> OUTPUTLOG            = 1
==> SBESTIMATE           = 2
FICO Xpress v8.5.9, solve started 23:49:17, Jun 8, 2019
Maximizing MILP Seating model
Original problem has:
       230 rows          300 cols         7440 elements       300 globals
Presolved problem has:
       103 rows          204 cols         2431 elements       198 globals
LP relaxation tightened
Will try to keep branch and bound tree memory usage below 7.2GB
 *** Heuristic solution found:    22.000000      Time: 0 ***
Starting concurrent solve with dual

 Concurrent-Solve,   0s
            Dual        
    objective   dual inf
 D  102.00000   .0000000
------- optimal --------
Concurrent statistics:
      Dual: 34 simplex iterations, 0.00s
Optimal solution found
 
   Its         Obj Value      S   Ninf  Nneg   Sum Dual Inf  Time
    34        102.000000      D      0     0        .000000     0
Dual solved problem
  34 simplex iterations in 0s

Final objective                         : 1.020000000000000e+02
  Max primal violation      (abs / rel) : 1.110e-16 / 9.869e-17
  Max dual violation        (abs / rel) :       0.0 /       0.0
  Max complementarity viol. (abs / rel) :       0.0 /       0.0
All values within tolerances

Starting root cutting & heuristics
 
 Its Type    BestSoln    BestBound   Sols    Add    Del     Gap     GInf   Time
   1  K     22.000000   102.000000      1     99      0   78.43%      29      1
   2  K     22.000000   102.000000      1    111     81   78.43%      43      1
   3  K     22.000000   102.000000      1     92    101   78.43%      48      1
b           28.000000   102.000000      2                 72.55%       0      1
   4  K     28.000000   102.000000      2     87     94   72.55%      35      1
   5  K     28.000000   102.000000      2    100     83   72.55%      49      1
   6  K     28.000000   102.000000      2     93     97   72.55%      47      1
   7  K     28.000000   102.000000      2     89     88   72.55%      58      1
b           35.000000   102.000000      3                 65.69%       0      1
   8  K     35.000000   102.000000      3     81     91   65.69%      37      1
   9  K     35.000000   102.000000      3     95     87   65.69%      48      1
  10  K     35.000000   102.000000      3     97     89   65.69%      58      1
  11  K     35.000000   102.000000      3     83     86   65.69%      67      1
  12  K     35.000000   102.000000      3     93     82   65.69%      72      1
  13  K     35.000000   102.000000      3     87     85   65.69%      76      1
  14  K     35.000000   102.000000      3      2     83   65.69%      39      1
  15  K     35.000000   102.000000      3      1      7   65.69%      39      1
  16  K     35.000000   102.000000      3      1     13   65.69%      39      1
  17  K     35.000000   102.000000      3     96      8   65.69%      58      1
  18  K     35.000000   102.000000      3      2     91   65.69%      39      1
b           47.000000   102.000000      4                 53.92%       0      1
  19  K     47.000000   102.000000      4     93     14   53.92%      52      1
  20  K     47.000000   102.000000      4     99    150   53.92%      59      1
  21  G     47.000000   102.000000      4     39     31   53.92%      41      1
  22  G     47.000000   102.000000      4     70    110   53.92%      55      1
Heuristic search started
Heuristic search stopped
 
Cuts in the matrix         : 39
Cut elements in the matrix : 1106
 
Starting tree search.
Deterministic mode with up to 4 running threads and up to 8 tasks.
 
    Node     BestSoln    BestBound   Sols Active  Depth     Gap     GInf   Time
       1    47.000000   102.000000      4      2      1   53.92%      45      1
       2    47.000000   102.000000      4      2      2   53.92%      57      1
       3    47.000000   102.000000      4      2      3   53.92%      49      1
       4    47.000000   102.000000      4      2      4   53.92%      42      1
       5    47.000000   102.000000      4      5      2   53.92%      34      1
       6    47.000000   102.000000      4      5      3   53.92%      40      1
       7    47.000000   102.000000      4      5      3   53.92%      48      1
       8    47.000000   102.000000      4      5      4   53.92%      30      1
       9    47.000000   102.000000      4      8      4   53.92%      44      1
      10    47.000000   102.000000      4      8      5   53.92%      36      1
      20    47.000000   102.000000      4     17      6   53.92%      33      1
      36    47.000000   102.000000      4     17     16   53.92%      48      1
      55    47.000000   102.000000      4     29     20   53.92%      16      1
      72    47.000000   102.000000      4     29     16   53.92%      19      1
      85    47.000000   102.000000      4     29     16   53.92%      43      1
      99    47.000000   102.000000      4     29     15   53.92%      39      1
     114    47.000000   102.000000      4     29     25   53.92%      29      1
a    124    52.000000   102.000000      5     29     23   49.02%       0      1
     218    52.000000   102.000000      5     60     16   49.02%      19      1
B&B tree size: 0.9MB total
 
    Node     BestSoln    BestBound   Sols Active  Depth     Gap     GInf   Time
     337    52.000000   101.242543      5     84     29   48.64%      28      2
     452    52.000000   101.242543      5    117     22   48.64%      40      2
     565    52.000000   101.242543      5    138     22   48.64%       9      2
     666    52.000000   101.242543      5    172     23   48.64%      37      2
     779    52.000000   101.242543      5    172     17   48.64%      27      2
     891    52.000000   101.242543      5    212     14   48.64%      43      2
     995    52.000000   101.242543      5    212     21   48.64%      33      2
    1108    52.000000   101.242543      5    317     19   48.64%      30      2
    1209    52.000000   101.242543      5    374     15   48.64%      48      2
    1321    52.000000   101.242543      5    374     11   48.64%      66      2
    1431    52.000000   101.242543      5    374     22   48.64%      19      2
a   1502    58.000000   101.242543      6    374     32   42.71%       0      2
    1540    58.000000   101.242543      6    374     17   42.71%      27      2
    1653    58.000000    99.549676      6    426     16   41.74%      31      3
    1769    58.000000    99.549676      6    426     16   41.74%      41      3
    1875    58.000000    99.549676      6    426     19   41.74%      18      3
    1981    58.000000    99.549676      6    426     22   41.74%      10      3
    2096    58.000000    99.549676      6    426     16   41.74%      28      3
    2204    58.000000    99.549676      6    562     16   41.74%      21      3
    2325    58.000000    99.549676      6    562     27   41.74%      28      3
B&B tree size: 5.7MB total
 
    Node     BestSoln    BestBound   Sols Active  Depth     Gap     GInf   Time
    2441    58.000000    99.549676      6    562     16   41.74%      45      3
    2554    58.000000    99.549676      6    562     21   41.74%      45      3
    2664    58.000000    99.549676      6    645     23   41.74%      10      3
    2772    58.000000    99.549676      6    645     23   41.74%      32      3
    2885    58.000000    99.549676      6    645     19   41.74%       7      3
    2988    58.000000    99.549676      6    645     21   41.74%      33      4
a   3100    59.000000    99.549676      7    645     27   40.73%       0      4
    3102    59.000000    99.549676      7    645     27   40.73%      13      4
    3202    59.000000    99.549676      7    645     24   40.73%      33      4
    3304    59.000000    99.549676      7    645     23   40.73%      20      4
    3404    59.000000    99.549676      7    645     24   40.73%      37      4
    3525    59.000000    99.549676      7    794     21   40.73%      30      4
    3638    59.000000    99.549676      7    794     16   40.73%      42      4
    3751    59.000000    99.549676      7    909     19   40.73%      23      4
    3858    59.000000    99.549676      7    909     19   40.73%      43      4
    3965    59.000000    99.549676      7    909     16   40.73%      21      4
    4068    59.000000    99.549676      7    909     23   40.73%       9      4
    4176    59.000000    99.549676      7    976     12   40.73%      45      4
    4283    59.000000    99.549676      7    976     20   40.73%      35      4
    4396    59.000000    99.549676      7    976     16   40.73%      47      4
B&B tree size: 9.8MB total
 
    Node     BestSoln    BestBound   Sols Active  Depth     Gap     GInf   Time
    4508    59.000000    99.549676      7    982     15   40.73%      36      4
    4610    59.000000    99.549676      7    982     19   40.73%      33      5
a   4689    60.000000    99.549676      8    982     19   39.73%       0      5
    4720    60.000000    99.549676      8    982     16   39.73%      50      5
    4845    60.000000    99.549676      8   1045      1   39.73%       1      5
    4956    60.000000    99.549676      8   1045     21   39.73%      30      5
    5068    60.000000    99.549676      8   1126     18   39.73%      23      5
    5181    60.000000    99.549676      8   1126     15   39.73%      41      5
    5284    60.000000    99.549676      8   1126     16   39.73%      22      5
    5388    60.000000    99.549676      8   1126     17   39.73%      13      5
    5497    60.000000    99.549676      8   1126     19   39.73%      43      5
    5620    60.000000    99.549676      8   1208     18   39.73%      35      5
    5720    60.000000    99.549676      8   1208     16   39.73%      42      5
    5837    60.000000    99.549676      8   1421     21   39.73%      29      5
    5944    60.000000    99.549676      8   1421     24   39.73%      21      5
    6044    60.000000    99.549676      8   1496     16   39.73%      43      6
    6147    60.000000    99.549676      8   1574     21   39.73%      22      6
    6265    60.000000    99.549676      8   1574     18   39.73%      26      6
    6377    60.000000    99.549676      8   1574     15   39.73%      40      6
    6490    60.000000    99.549676      8   1574     23   39.73%      42      6
B&B tree size: 14MB total
 
    Node     BestSoln    BestBound   Sols Active  Depth     Gap     GInf   Time
    6597    60.000000    99.549676      8   1574     16   39.73%      44      6
    6716    60.000000    99.549676      8   1574     20   39.73%      43      6
    6832    60.000000    99.549676      8   1569     25   39.73%      18      6
    6934    60.000000    93.095965      8   1785     17   35.55%      47      6
    7049    60.000000    93.095965      8   1785     16   35.55%      32      6
    7158    60.000000    93.095965      8   1785     16   35.55%      34      6
    7274    60.000000    93.095965      8   1837     24   35.55%      18      6
    7388    60.000000    93.095965      8   1953     20   35.55%      39      7
    7491    60.000000    93.095965      8   1953     27   35.55%      23      7
    7591    60.000000    93.095965      8   2087     16   35.55%      31      7
    7705    60.000000    93.095965      8   2087     19   35.55%      28      7
    7824    60.000000    93.095965      8   2087     19   35.55%      26      7
    7939    60.000000    93.095965      8   2087     19   35.55%      41      7
    8040    60.000000    93.095965      8   2087     16   35.55%      29      7
    8150    60.000000    93.095965      8   2087     21   35.55%      28      7
    8258    60.000000    93.095965      8   2087     16   35.55%      39      7
    8368    60.000000    93.095965      8   2171     18   35.55%      27      7
    8473    60.000000    93.095965      8   2171     16   35.55%      30      7
    8574    60.000000    87.619858      8   2210     14   31.52%      31      7
    8678    60.000000    87.619858      8   2222     19   31.52%      44      7
B&B tree size: 17MB total
 
    Node     BestSoln    BestBound   Sols Active  Depth     Gap     GInf   Time
    8789    60.000000    87.619858      8   2277     21   31.52%      45      8
    8896    60.000000    87.619858      8   2292     18   31.52%      41      8
    9001    60.000000    87.619858      8   2319     18   31.52%      31      8
    9104    60.000000    87.619858      8   2319     23   31.52%      30      8
    9205    60.000000    85.837551      8   2343     18   30.10%      33      8
    9319    60.000000    85.837551      8   2343     16   30.10%      44      8
    9429    60.000000    85.837551      8   2343     19   30.10%      46      8
    9532    60.000000    85.837551      8   2374     16   30.10%      22      8
    9632    60.000000    85.837551      8   2384     18   30.10%      33      8
    9736    60.000000    85.837551      8   2384     17   30.10%      28      8
    9842    60.000000    85.837551      8   2384     20   30.10%      40      8
    9943    60.000000    84.888497      8   2428     16   29.32%      32      9
   10060    60.000000    84.888497      8   2428     18   29.32%      43      9
   11065    60.000000    84.500000      8   2499     25   28.99%      32      9
   12072    60.000000    83.249620      8   2699     14   27.93%      18     10
   13076    60.000000    82.261316      8   2790     16   27.06%      34     11
   14088    60.000000    81.661057      8   2882     16   26.53%      29     11
   15099    60.000000    81.068640      8   3009     24   25.99%      44     12
   16115    60.000000    80.001084      8   3154     20   25.00%      22     13
   17120    60.000000    79.885167      8   3164     18   24.89%      27     13
B&B tree size: 28MB total
 
    Node     BestSoln    BestBound   Sols Active  Depth     Gap     GInf   Time
   18129    60.000000    79.221965      8   3322     16   24.26%      40     14
   19138    60.000000    78.561925      8   3391     20   23.63%      30     15
   20150    60.000000    78.192029      8   3395     16   23.27%      35     16
   21150    60.000000    77.386364      8   3461     21   22.47%      28     16
   22175    60.000000    77.098919      8   3504     24   22.18%      13     17
   23190    60.000000    76.201754      8   3498     20   21.26%      32     17
   24190    60.000000    75.818182      8   3500     18   20.86%      43     18
   25206    60.000000    75.165096      8   3468     30   20.18%      17     18
   26225    60.000000    75.000000      8   3504     21   20.00%      22     19
   27228    60.000000    74.039291      8   3463     23   18.96%      24     20
   28232    60.000000    74.000000      8   3441     23   18.92%      30     20
   29249    60.000000    73.000000      8   3405     25   17.81%      22     21
   30250    60.000000    72.705185      8   3385     11   17.47%      30     21
   31251    60.000000    72.214795      8   3325     24   16.91%      28     22
   32261    60.000000    71.983947      8   3244     21   16.65%      38     22
   33277    60.000000    71.178139      8   3152     29   15.70%      18     23
   34279    60.000000    70.996338      8   3069     22   15.49%      39     23
   35304    60.000000    70.076236      8   2979     24   14.38%      30     24
   36304    60.000000    70.000000      8   2867     22   14.29%      23     24
   37308    60.000000    69.137914      8   2687     15   13.22%      43     25
B&B tree size: 31MB total
 
    Node     BestSoln    BestBound   Sols Active  Depth     Gap     GInf   Time
   38310    60.000000    69.000000      8   2561     21   13.04%      21     25
   39315    60.000000    68.341667      8   2401     22   12.21%      34     26
   40315    60.000000    68.000000      8   2158     13   11.76%      31     26
   41315    60.000000    67.363581      8   1946     16   10.93%      27     27
   42318    60.000000    66.880952      8   1769     23   10.29%      34     27
   43318    60.000000    66.000000      8   1483     21    9.09%      32     27
   44337    60.000000    65.050000      8   1106     21    7.76%      25     28
   45337    60.000000    64.000000      8    625     17    6.25%      28     28
   46337    60.000000    63.000000      8    177     18    4.76%      18     29
 *** Search completed ***     Time:    29 Nodes:      46813
Number of integer feasible solutions found is 8
Best integer solution found is    60.000000
Best bound is    60.000000
Uncrunching matrix
